************************************************************************
file with basedata            : mm52_.bas
initial value random generator: 28575
************************************************************************
projects                      :  1
jobs (incl. supersource/sink ):  12
horizon                       :  85
RESOURCES
  - renewable                 :  2   R
  - nonrenewable              :  2   N
  - doubly constrained        :  0   D
************************************************************************
PROJECT INFORMATION:
pronr.  #jobs rel.date duedate tardcost  MPM-Time
    1     10      0       11        4       11
************************************************************************
PRECEDENCE RELATIONS:
jobnr.    #modes  #successors   successors
   0        1          3           1   2   3
   1        3          1          10
   2        3          2           5   7
   3        3          3           4   6   8
   4        3          2           7   9
   5        3          2           6   9
   6        3          1          10
   7        3          1          10
   8        3          1          11
   9        3          1          11
  10        3          1          11
  11        1          0        
************************************************************************
REQUESTS/DURATIONS:
jobnr. mode duration  R 1  R 2  R 3  R 4  E(W 1)
------------------------------------------------------------------------
  0      1     0       0    0    0    0     0
  1      1     6       8    8    0    6    132
  2      1     4       5    4    0    6    60
  3      1     1       9    6    6    0    21
  4      1     1       6    6   10    0    22
  5      1     3       4    7    2    0    39
  6      1     2       7    6    3    0    32
  7      1     3       8    4    6    0    54
  8      1     3       6    8    6    0    60
  9      1     2       3    9    5    0    34
 10      1     2       5    6    0    4    30
 11      1     0       0    0    0    0     0
************************************************************************
RESOURCEAVAILABILITIES:
  R 1
   137
************************************************************************
RESOURCE LIMITS:
jobnr.  l(R 1)  u(R 1)
------------------------------------------------------------------------
  0        0       0
  1       11      22
  2        8      15
  3       11      21
  4       11      22
  5        7      13
  6        9      16
  7        9      18
  8       10      20
  9       10      17
 10        8      15
 11        0       0
************************************************************************
SCENARIOS:
------------------------------------------------------------------------
RESOURCE k = 1
s = 1: (0, 114, 52, 13, 23, 59, 29, 83, 89, 36, 19, 0)
s = 2: (0, 101, 77, 30, 15, 27, 30, 64, 71, 36, 35, 0)
s = 3: (0, 126, 87, 16, 29, 35, 24, 61, 46, 19, 33, 0)
s = 4: (0, 122, 41, 20, 21, 57, 47, 75, 87, 34, 33, 0)
s = 5: (0, 82, 67, 24, 16, 33, 43, 73, 83, 28, 47, 0)
s = 6: (0, 118, 47, 15, 33, 42, 46, 77, 58, 47, 40, 0)
s = 7: (0, 93, 65, 22, 29, 37, 29, 53, 56, 32, 31, 0)
s = 8: (0, 181, 56, 25, 22, 36, 23, 64, 93, 50, 22, 0)
s = 9: (0, 105, 52, 17, 23, 49, 21, 75, 44, 30, 22, 0)
s = 10: (0, 96, 48, 17, 13, 47, 36, 30, 81, 18, 28, 0)
s = 11: (0, 108, 69, 22, 32, 43, 22, 47, 74, 43, 24, 0)
s = 12: (0, 146, 55, 21, 24, 40, 37, 34, 69, 31, 23, 0)
s = 13: (0, 167, 66, 26, 26, 53, 27, 55, 42, 27, 37, 0)
s = 14: (0, 105, 48, 32, 17, 33, 31, 38, 77, 55, 50, 0)
s = 15: (0, 120, 82, 32, 22, 32, 21, 80, 48, 35, 22, 0)
s = 16: (0, 227, 51, 15, 33, 36, 37, 31, 77, 36, 52, 0)
s = 17: (0, 201, 55, 13, 25, 60, 25, 54, 83, 58, 31, 0)
s = 18: (0, 140, 69, 24, 28, 52, 29, 61, 67, 35, 35, 0)
s = 19: (0, 112, 47, 22, 24, 37, 27, 48, 55, 24, 21, 0)
s = 20: (0, 145, 78, 14, 22, 36, 35, 75, 107, 22, 27, 0)
s = 21: (0, 118, 71, 18, 23, 38, 27, 51, 46, 46, 32, 0)
s = 22: (0, 174, 70, 25, 17, 32, 22, 47, 86, 23, 31, 0)
s = 23: (0, 80, 40, 27, 23, 58, 30, 45, 55, 33, 40, 0)
s = 24: (0, 93, 62, 26, 24, 27, 23, 84, 100, 25, 25, 0)
s = 25: (0, 175, 47, 15, 20, 48, 23, 33, 49, 51, 39, 0)
s = 26: (0, 132, 73, 17, 21, 37, 33, 62, 49, 22, 35, 0)
s = 27: (0, 179, 54, 29, 18, 52, 20, 46, 85, 27, 17, 0)
s = 28: (0, 118, 56, 31, 36, 32, 29, 53, 73, 37, 31, 0)
s = 29: (0, 85, 47, 14, 21, 41, 23, 30, 88, 30, 33, 0)
s = 30: (0, 97, 52, 15, 17, 34, 29, 52, 78, 44, 22, 0)
s = 31: (0, 158, 86, 17, 25, 26, 35, 75, 39, 39, 22, 0)
s = 32: (0, 183, 51, 21, 21, 47, 19, 44, 46, 25, 42, 0)
s = 33: (0, 223, 67, 13, 27, 32, 27, 62, 63, 43, 27, 0)
s = 34: (0, 170, 42, 12, 27, 44, 25, 68, 47, 35, 25, 0)
s = 35: (0, 126, 94, 33, 23, 38, 23, 50, 58, 38, 26, 0)
s = 36: (0, 116, 87, 33, 19, 45, 24, 31, 80, 37, 31, 0)
s = 37: (0, 101, 60, 15, 14, 44, 38, 50, 54, 41, 35, 0)
s = 38: (0, 129, 35, 31, 12, 30, 37, 69, 51, 26, 34, 0)
s = 39: (0, 122, 46, 16, 27, 43, 28, 75, 60, 42, 21, 0)
s = 40: (0, 104, 57, 18, 18, 24, 43, 60, 81, 38, 29, 0)
s = 41: (0, 72, 53, 32, 30, 29, 37, 69, 98, 38, 29, 0)
s = 42: (0, 107, 57, 28, 29, 31, 30, 54, 88, 37, 22, 0)
s = 43: (0, 86, 48, 17, 24, 37, 27, 68, 74, 19, 42, 0)
s = 44: (0, 148, 56, 16, 29, 27, 32, 76, 39, 39, 24, 0)
s = 45: (0, 187, 97, 21, 31, 35, 22, 53, 37, 39, 45, 0)
s = 46: (0, 142, 55, 21, 17, 39, 25, 50, 61, 42, 38, 0)
s = 47: (0, 226, 71, 20, 26, 49, 41, 44, 48, 34, 30, 0)
s = 48: (0, 139, 38, 22, 23, 35, 30, 58, 65, 41, 32, 0)
s = 49: (0, 123, 73, 18, 16, 36, 43, 40, 60, 45, 36, 0)
s = 50: (0, 118, 40, 23, 18, 52, 43, 72, 53, 44, 33, 0)
s = 51: (0, 162, 67, 30, 37, 40, 32, 57, 53, 42, 31, 0)
s = 52: (0, 104, 74, 29, 36, 58, 34, 30, 52, 18, 26, 0)
s = 53: (0, 170, 37, 22, 33, 54, 60, 60, 66, 45, 28, 0)
s = 54: (0, 99, 33, 30, 35, 28, 33, 53, 50, 24, 40, 0)
s = 55: (0, 160, 54, 14, 28, 57, 37, 79, 73, 21, 24, 0)
s = 56: (0, 143, 49, 12, 28, 33, 28, 43, 65, 34, 26, 0)
s = 57: (0, 175, 61, 30, 23, 33, 55, 66, 81, 28, 27, 0)
s = 58: (0, 151, 93, 37, 21, 50, 45, 69, 67, 44, 23, 0)
s = 59: (0, 103, 52, 23, 26, 30, 28, 49, 69, 33, 41, 0)
s = 60: (0, 150, 108, 28, 21, 49, 28, 49, 47, 37, 38, 0)
s = 61: (0, 88, 66, 16, 17, 43, 42, 45, 64, 25, 34, 0)
s = 62: (0, 118, 68, 15, 21, 62, 38, 82, 40, 32, 26, 0)
s = 63: (0, 116, 67, 26, 35, 45, 47, 47, 46, 46, 38, 0)
s = 64: (0, 76, 34, 29, 27, 30, 37, 35, 39, 34, 21, 0)
s = 65: (0, 166, 48, 20, 21, 22, 17, 42, 108, 28, 28, 0)
s = 66: (0, 150, 42, 14, 14, 38, 34, 68, 39, 44, 36, 0)
s = 67: (0, 156, 55, 20, 34, 36, 32, 44, 55, 40, 27, 0)
s = 68: (0, 99, 71, 25, 16, 40, 44, 52, 62, 30, 44, 0)
s = 69: (0, 165, 45, 23, 19, 52, 21, 70, 33, 44, 25, 0)
s = 70: (0, 79, 54, 17, 23, 28, 39, 76, 75, 35, 23, 0)
s = 71: (0, 87, 51, 23, 23, 55, 30, 51, 66, 34, 39, 0)
s = 72: (0, 146, 54, 25, 25, 32, 37, 36, 50, 37, 21, 0)
s = 73: (0, 135, 67, 16, 27, 37, 27, 70, 55, 26, 42, 0)
s = 74: (0, 120, 58, 31, 23, 45, 55, 59, 51, 32, 46, 0)
s = 75: (0, 170, 45, 16, 22, 25, 36, 36, 86, 30, 28, 0)
s = 76: (0, 93, 49, 16, 28, 57, 32, 51, 87, 33, 42, 0)
s = 77: (0, 124, 34, 25, 16, 46, 26, 42, 36, 23, 39, 0)
s = 78: (0, 178, 50, 25, 22, 37, 31, 46, 72, 42, 33, 0)
s = 79: (0, 214, 52, 13, 37, 31, 32, 39, 50, 23, 41, 0)
s = 80: (0, 121, 67, 13, 36, 45, 43, 53, 71, 36, 37, 0)
s = 81: (0, 152, 66, 25, 21, 34, 24, 70, 60, 34, 36, 0)
s = 82: (0, 151, 50, 22, 23, 44, 20, 65, 54, 30, 29, 0)
s = 83: (0, 104, 50, 15, 22, 44, 29, 29, 76, 38, 47, 0)
s = 84: (0, 162, 55, 22, 22, 42, 44, 44, 60, 28, 25, 0)
s = 85: (0, 129, 55, 24, 26, 48, 40, 45, 51, 32, 42, 0)
s = 86: (0, 127, 96, 17, 21, 35, 22, 54, 52, 32, 27, 0)
s = 87: (0, 218, 94, 19, 24, 25, 28, 61, 58, 30, 16, 0)
s = 88: (0, 155, 82, 16, 15, 42, 31, 74, 54, 29, 31, 0)
s = 89: (0, 99, 74, 21, 16, 36, 31, 33, 76, 34, 31, 0)
s = 90: (0, 69, 64, 18, 24, 38, 18, 43, 52, 26, 23, 0)
s = 91: (0, 98, 64, 20, 25, 25, 30, 48, 53, 28, 20, 0)
s = 92: (0, 169, 76, 16, 22, 40, 33, 62, 41, 28, 41, 0)
s = 93: (0, 83, 37, 14, 18, 46, 22, 57, 39, 37, 27, 0)
s = 94: (0, 166, 61, 21, 24, 39, 42, 67, 51, 38, 40, 0)
s = 95: (0, 136, 53, 21, 27, 40, 35, 65, 96, 38, 25, 0)
s = 96: (0, 200, 87, 19, 16, 31, 37, 57, 43, 48, 29, 0)
s = 97: (0, 194, 82, 23, 19, 31, 48, 55, 45, 37, 37, 0)
s = 98: (0, 100, 88, 20, 22, 24, 47, 42, 65, 36, 39, 0)
s = 99: (0, 125, 61, 24, 37, 24, 27, 50, 59, 23, 35, 0)
s = 100: (0, 71, 61, 22, 21, 36, 42, 38, 69, 29, 29, 0)
s = 101: (0, 233, 41, 31, 22, 36, 22, 62, 49, 31, 28, 0)
s = 102: (0, 167, 38, 26, 16, 48, 42, 40, 47, 40, 39, 0)
s = 103: (0, 93, 47, 29, 28, 40, 32, 55, 42, 32, 23, 0)
s = 104: (0, 129, 50, 27, 30, 36, 27, 47, 68, 25, 20, 0)
s = 105: (0, 142, 46, 18, 14, 28, 23, 67, 56, 40, 37, 0)
s = 106: (0, 97, 55, 22, 17, 29, 28, 56, 71, 29, 22, 0)
s = 107: (0, 128, 74, 37, 26, 27, 26, 49, 49, 20, 42, 0)
s = 108: (0, 110, 81, 33, 28, 64, 37, 52, 79, 26, 18, 0)
s = 109: (0, 205, 41, 20, 14, 45, 28, 62, 42, 30, 21, 0)
s = 110: (0, 102, 57, 17, 26, 39, 26, 54, 79, 39, 27, 0)
s = 111: (0, 206, 92, 32, 29, 54, 27, 94, 58, 40, 44, 0)
s = 112: (0, 167, 63, 30, 25, 40, 21, 63, 72, 29, 46, 0)
s = 113: (0, 127, 32, 27, 27, 30, 20, 93, 72, 39, 24, 0)
s = 114: (0, 127, 63, 20, 41, 33, 21, 50, 79, 52, 21, 0)
s = 115: (0, 147, 59, 24, 30, 61, 25, 67, 42, 44, 33, 0)
s = 116: (0, 110, 62, 35, 25, 27, 52, 30, 55, 40, 27, 0)
s = 117: (0, 160, 83, 12, 21, 44, 37, 49, 38, 41, 19, 0)
s = 118: (0, 79, 38, 15, 21, 35, 42, 55, 38, 46, 32, 0)
s = 119: (0, 223, 69, 22, 13, 32, 29, 56, 38, 30, 25, 0)
s = 120: (0, 165, 61, 18, 20, 34, 37, 53, 52, 29, 23, 0)
s = 121: (0, 126, 53, 19, 21, 45, 37, 57, 51, 35, 37, 0)
s = 122: (0, 126, 64, 21, 28, 24, 35, 84, 64, 29, 30, 0)
s = 123: (0, 144, 45, 22, 18, 26, 30, 71, 39, 22, 40, 0)
s = 124: (0, 122, 69, 13, 19, 42, 25, 37, 89, 61, 43, 0)
s = 125: (0, 171, 46, 21, 29, 48, 32, 77, 51, 18, 17, 0)
s = 126: (0, 112, 63, 19, 25, 33, 18, 46, 55, 33, 20, 0)
s = 127: (0, 180, 50, 20, 21, 57, 33, 32, 37, 31, 18, 0)
s = 128: (0, 90, 54, 24, 18, 32, 28, 33, 65, 39, 39, 0)
s = 129: (0, 107, 64, 22, 25, 34, 26, 84, 51, 56, 26, 0)
s = 130: (0, 211, 56, 16, 21, 28, 19, 63, 83, 24, 24, 0)
s = 131: (0, 147, 87, 16, 19, 36, 19, 71, 56, 22, 28, 0)
s = 132: (0, 154, 77, 28, 21, 52, 25, 63, 83, 39, 18, 0)
s = 133: (0, 104, 75, 32, 16, 38, 20, 59, 71, 36, 24, 0)
s = 134: (0, 160, 84, 28, 18, 55, 21, 61, 78, 36, 25, 0)
s = 135: (0, 139, 59, 14, 30, 34, 27, 47, 89, 29, 41, 0)
s = 136: (0, 104, 67, 30, 15, 33, 23, 91, 71, 29, 52, 0)
s = 137: (0, 233, 36, 14, 16, 35, 41, 59, 92, 35, 41, 0)
s = 138: (0, 134, 66, 27, 23, 30, 54, 33, 55, 33, 30, 0)
s = 139: (0, 154, 72, 17, 19, 46, 31, 63, 75, 46, 30, 0)
s = 140: (0, 114, 83, 23, 19, 29, 19, 44, 88, 30, 31, 0)
s = 141: (0, 171, 50, 21, 23, 27, 31, 80, 66, 22, 28, 0)
s = 142: (0, 136, 48, 15, 23, 61, 44, 52, 70, 32, 44, 0)
s = 143: (0, 94, 43, 22, 24, 45, 21, 52, 65, 21, 24, 0)
s = 144: (0, 88, 49, 15, 22, 42, 46, 54, 64, 35, 28, 0)
s = 145: (0, 99, 68, 19, 15, 33, 23, 59, 93, 46, 27, 0)
s = 146: (0, 92, 48, 18, 18, 52, 36, 43, 45, 38, 28, 0)
s = 147: (0, 147, 43, 20, 19, 46, 25, 66, 73, 23, 50, 0)
s = 148: (0, 85, 39, 14, 14, 50, 23, 50, 89, 26, 40, 0)
s = 149: (0, 153, 71, 22, 15, 30, 28, 59, 45, 27, 31, 0)
s = 150: (0, 230, 80, 12, 31, 43, 32, 43, 47, 35, 23, 0)
s = 151: (0, 132, 43, 19, 23, 44, 25, 38, 70, 24, 32, 0)
s = 152: (0, 76, 72, 16, 17, 34, 25, 65, 73, 45, 36, 0)
s = 153: (0, 148, 38, 20, 28, 54, 29, 58, 60, 25, 43, 0)
s = 154: (0, 126, 49, 21, 22, 41, 23, 40, 52, 31, 37, 0)
s = 155: (0, 104, 57, 14, 21, 33, 26, 75, 36, 27, 23, 0)
s = 156: (0, 95, 69, 22, 24, 42, 36, 75, 77, 38, 29, 0)
s = 157: (0, 202, 87, 23, 32, 31, 25, 47, 62, 33, 30, 0)
s = 158: (0, 172, 63, 21, 20, 56, 35, 56, 83, 34, 29, 0)
s = 159: (0, 129, 81, 27, 19, 45, 39, 58, 46, 43, 30, 0)
s = 160: (0, 131, 67, 24, 23, 32, 25, 66, 66, 32, 25, 0)
s = 161: (0, 163, 52, 22, 20, 32, 27, 65, 89, 57, 46, 0)
s = 162: (0, 171, 50, 28, 25, 44, 26, 83, 75, 31, 22, 0)
s = 163: (0, 85, 37, 13, 21, 38, 35, 47, 57, 27, 44, 0)
s = 164: (0, 134, 54, 20, 12, 46, 34, 69, 56, 49, 30, 0)
s = 165: (0, 86, 36, 23, 17, 37, 44, 38, 55, 29, 43, 0)
s = 166: (0, 94, 52, 25, 26, 44, 34, 50, 91, 19, 26, 0)
s = 167: (0, 98, 43, 14, 17, 49, 38, 32, 45, 46, 22, 0)
s = 168: (0, 234, 39, 24, 28, 28, 27, 52, 56, 22, 54, 0)
s = 169: (0, 82, 60, 19, 16, 34, 24, 68, 60, 21, 46, 0)
s = 170: (0, 79, 37, 36, 24, 32, 32, 55, 63, 53, 22, 0)
s = 171: (0, 248, 64, 25, 39, 44, 50, 46, 50, 46, 33, 0)
s = 172: (0, 122, 77, 20, 22, 38, 51, 37, 43, 23, 30, 0)
s = 173: (0, 130, 70, 15, 21, 57, 36, 37, 66, 39, 44, 0)
s = 174: (0, 161, 68, 27, 26, 36, 35, 45, 45, 58, 32, 0)
s = 175: (0, 158, 71, 19, 25, 30, 26, 65, 65, 26, 26, 0)
s = 176: (0, 227, 67, 20, 16, 60, 28, 41, 66, 32, 43, 0)
s = 177: (0, 112, 37, 23, 14, 24, 38, 44, 95, 28, 28, 0)
s = 178: (0, 116, 58, 17, 22, 40, 32, 56, 40, 45, 25, 0)
s = 179: (0, 123, 65, 21, 23, 28, 28, 52, 32, 43, 25, 0)
s = 180: (0, 187, 64, 20, 20, 44, 23, 68, 57, 18, 18, 0)
s = 181: (0, 76, 42, 26, 14, 27, 19, 51, 61, 34, 26, 0)
s = 182: (0, 137, 90, 21, 13, 46, 48, 47, 70, 36, 36, 0)
s = 183: (0, 89, 64, 15, 15, 47, 25, 63, 47, 24, 49, 0)
s = 184: (0, 111, 63, 18, 36, 61, 29, 68, 67, 25, 23, 0)
s = 185: (0, 77, 40, 12, 21, 31, 26, 53, 45, 39, 51, 0)
s = 186: (0, 120, 105, 20, 20, 40, 41, 55, 67, 35, 36, 0)
s = 187: (0, 125, 56, 14, 16, 24, 20, 33, 71, 33, 30, 0)
s = 188: (0, 149, 38, 30, 20, 36, 25, 52, 102, 40, 22, 0)
s = 189: (0, 92, 63, 24, 20, 46, 22, 69, 67, 35, 32, 0)
s = 190: (0, 76, 72, 22, 15, 39, 28, 35, 90, 36, 33, 0)
s = 191: (0, 136, 72, 17, 15, 24, 31, 56, 51, 25, 39, 0)
s = 192: (0, 90, 48, 18, 29, 41, 43, 37, 82, 24, 31, 0)
s = 193: (0, 133, 80, 22, 25, 33, 25, 49, 46, 40, 26, 0)
s = 194: (0, 118, 42, 13, 20, 55, 22, 59, 49, 51, 36, 0)
s = 195: (0, 151, 74, 15, 24, 37, 36, 38, 91, 48, 30, 0)
s = 196: (0, 85, 70, 15, 12, 30, 37, 63, 92, 28, 20, 0)
s = 197: (0, 88, 48, 18, 23, 55, 42, 44, 50, 34, 27, 0)
s = 198: (0, 101, 96, 32, 24, 25, 25, 52, 79, 27, 27, 0)
s = 199: (0, 182, 59, 19, 15, 29, 33, 63, 48, 33, 52, 0)
s = 200: (0, 112, 56, 33, 23, 41, 27, 48, 38, 21, 21, 0)
************************************************************************
ES/LS-VALUES:
jobnr.   ES(i)    LS(i)
------------------------------------------------------------------------
  0        0        0
  1        0       69
  2        0       64
  3        0       71
  4        1       73
  5        7       72
  6       11       77
  7        7       75
  8        1       79
  9       11       81
 10       14       81
 11       17       85
************************************************************************
BIG-M-VALUES:
M1 = 23, M2 = 248
************************************************************************
